p cnf 93 261
19 35 40 44 0
54 68 0
61 64 0
42 47 63 0
56 67 75 0
29 79 0
27 38 41 0
23 25 53 0
33 36 50 58 77 0
49 83 0
69 70 71 0
60 65 72 0
62 73 74 0
45 55 66 76 0
21 30 0
80 82 85 0
87 90 0
51 57 78 0
32 84 91 0
39 92 0
46 59 93 0
16 17 18 20 0
15 81 0
13 14 28 0
11 12 89 0
10 22 0
9 31 0
-34 -65 0
-34 -66 0
-21 -34 0
-65 -66 0
-21 -65 0
-21 -66 0
-26 -80 0
-57 -80 0
-32 -80 0
-26 -57 0
-26 -32 0
-32 -57 0
-39 -59 0
-18 -39 0
-15 -39 0
-18 -59 0
-15 -59 0
-15 -18 0
-8 -14 0
-9 -14 0
-7 -14 0
-8 -9 0
-7 -8 0
-7 -9 0
-34 -80 0
-34 -39 0
-14 -34 0
-39 -80 0
-14 -80 0
-14 -39 0
-26 -65 0
-59 -65 0
-8 -65 0
-26 -59 0
-8 -26 0
-8 -59 0
-57 -66 0
-18 -66 0
-9 -66 0
-18 -57 0
-9 -57 0
-9 -18 0
-21 -32 0
-15 -21 0
-7 -21 0
-15 -32 0
-7 -32 0
-7 -15 0
-35 -64 0
-35 -47 0
-35 -67 0
-47 -64 0
-64 -67 0
-47 -67 0
-27 -79 0
-25 -79 0
-58 -79 0
-25 -27 0
-27 -58 0
-25 -58 0
-6 -60 0
-6 -62 0
-6 -55 0
-60 -62 0
-55 -60 0
-55 -62 0
-37 -82 0
-52 -82 0
-78 -82 0
-37 -52 0
-37 -78 0
-52 -78 0
-35 -79 0
-6 -35 0
-35 -82 0
-6 -79 0
-79 -82 0
-6 -82 0
-27 -64 0
-60 -64 0
-37 -64 0
-27 -60 0
-27 -37 0
-37 -60 0
-25 -47 0
-47 -62 0
-47 -52 0
-25 -62 0
-25 -52 0
-52 -62 0
-58 -67 0
-55 -67 0
-67 -78 0
-55 -58 0
-58 -78 0
-55 -78 0
-61 -63 0
-56 -61 0
-56 -63 0
-38 -53 0
-38 -77 0
-53 -77 0
-5 -93 0
-17 -93 0
-5 -17 0
-38 -61 0
-61 -93 0
-38 -93 0
-53 -63 0
-5 -63 0
-5 -53 0
-56 -77 0
-17 -56 0
-17 -77 0
-40 -54 0
-40 -42 0
-42 -54 0
-43 -69 0
-43 -73 0
-69 -73 0
-13 -89 0
-13 -22 0
-22 -89 0
-40 -43 0
-13 -40 0
-13 -43 0
-54 -69 0
-54 -89 0
-69 -89 0
-42 -73 0
-22 -42 0
-22 -73 0
-44 -68 0
-4 -44 0
-4 -68 0
-85 -87 0
-84 -85 0
-84 -87 0
-12 -28 0
-28 -48 0
-12 -48 0
-44 -85 0
-28 -44 0
-28 -85 0
-68 -87 0
-12 -68 0
-12 -87 0
-4 -84 0
-4 -48 0
-48 -84 0
-33 -86 0
-83 -86 0
-33 -83 0
-45 -70 0
-30 -70 0
-30 -45 0
-51 -90 0
-90 -91 0
-51 -91 0
-70 -86 0
-86 -90 0
-70 -90 0
-33 -45 0
-33 -51 0
-45 -51 0
-30 -83 0
-83 -91 0
-30 -91 0
-41 -88 0
-23 -88 0
-50 -88 0
-23 -41 0
-41 -50 0
-23 -50 0
-71 -72 0
-71 -74 0
-71 -76 0
-72 -74 0
-72 -76 0
-74 -76 0
-3 -46 0
-2 -3 0
-3 -20 0
-2 -46 0
-20 -46 0
-2 -20 0
-11 -24 0
-10 -11 0
-11 -31 0
-10 -24 0
-24 -31 0
-10 -31 0
-71 -88 0
-3 -88 0
-11 -88 0
-3 -71 0
-11 -71 0
-3 -11 0
-41 -72 0
-41 -46 0
-24 -41 0
-46 -72 0
-24 -72 0
-24 -46 0
-23 -74 0
-2 -23 0
-10 -23 0
-2 -74 0
-10 -74 0
-2 -10 0
-50 -76 0
-20 -50 0
-31 -50 0
-20 -76 0
-31 -76 0
-20 -31 0
-19 -75 0
-1 -19 0
-1 -75 0
-29 -36 0
-29 -49 0
-36 -49 0
-16 -92 0
-81 -92 0
-16 -81 0
-19 -29 0
-19 -92 0
-29 -92 0
-36 -75 0
-16 -75 0
-16 -36 0
-1 -49 0
-1 -81 0
-49 -81 0
